HUN,8,6,597
0,10,2,27,1,30,3,6,5,17,4,26
0,3,1,24,2,4,4,29,3,16,5,5
2,3,1,5,0,5,5,16,4,3,3,26
0,9,1,25,2,16,3,28,4,25,5,10
0,5,2,15,1,16,4,27,3,26,5,24
1,14,2,23,0,3,5,27,3,16,4,18
1,29,2,30,0,7,3,27,5,28,4,24
1,8,0,16,2,26,4,10,5,16,3,21
